p cnf 40 117
23 24 0
-1 -5 0
-1 -10 0
-1 -13 0
-1 -18 0
-1 -25 0
-1 -28 0
-1 -33 0
-5 -10 0
-5 -13 0
-5 -18 0
-5 -25 0
-5 -28 0
-5 -33 0
-10 -13 0
-10 -18 0
-10 -25 0
-10 -28 0
-10 -33 0
-13 -18 0
-13 -25 0
-13 -28 0
-13 -33 0
-18 -25 0
-18 -28 0
-18 -33 0
-25 -28 0
-25 -33 0
-28 -33 0
-2 -6 0
-2 -26 0
-2 -29 0
-2 -34 0
-2 -37 0
-6 -26 0
-6 -29 0
-6 -34 0
-6 -37 0
-26 -29 0
-26 -34 0
-26 -37 0
-29 -34 0
-29 -37 0
-34 -37 0
-7 -14 0
-7 -19 0
-7 -27 0
-7 -35 0
-7 -38 0
-14 -19 0
-14 -27 0
-14 -35 0
-14 -38 0
-19 -27 0
-19 -35 0
-19 -38 0
-27 -35 0
-27 -38 0
-35 -38 0
-3 -11 0
-3 -15 0
-3 -20 0
-3 -23 0
-3 -30 0
-11 -15 0
-11 -20 0
-11 -23 0
-11 -30 0
-15 -20 0
-15 -23 0
-15 -30 0
-20 -23 0
-20 -30 0
-23 -30 0
-4 -8 0
-4 -12 0
-4 -16 0
-4 -21 0
-4 -31 0
-4 -36 0
-4 -39 0
-8 -12 0
-8 -16 0
-8 -21 0
-8 -31 0
-8 -36 0
-8 -39 0
-12 -16 0
-12 -21 0
-12 -31 0
-12 -36 0
-12 -39 0
-16 -21 0
-16 -31 0
-16 -36 0
-16 -39 0
-21 -31 0
-21 -36 0
-21 -39 0
-31 -36 0
-31 -39 0
-36 -39 0
-9 -17 0
-9 -22 0
-9 -24 0
-9 -32 0
-9 -40 0
-17 -22 0
-17 -24 0
-17 -32 0
-17 -40 0
-22 -24 0
-22 -32 0
-22 -40 0
-24 -32 0
-24 -40 0
-32 -40 0
